(declare-const a sl.list.loc)
(declare-const b sl.list.loc)
(declare-const d1 Int)
(declare-const d2 Int)
(assert (and (sl.list a)
             (sl.sepcon (sl.sepcon (sl.list.pointsto a b)
                                   (sl.list.pointsto b sl.list.null))
                        (sl.sepcon (sl.list.data a d1)
                                   (sl.list.data b d2)))))
